(declare-fun reg_49_68 () (_ BitVec 8))
(declare-fun reg_49_16 () (_ BitVec 8))
(declare-fun reg_49_67 () (_ BitVec 32))
(declare-fun reg_49_15 () (_ BitVec 32))
(declare-fun reg_49_66 () (_ BitVec 32))
(declare-fun reg_49_14 () (_ BitVec 32))
(declare-fun reg_49_65 () (_ BitVec 32))
(declare-fun reg_49_13 () (_ BitVec 32))
(declare-fun reg_49_64 () (_ BitVec 32))
(declare-fun reg_49_12 () (_ BitVec 32))
(declare-fun reg_49_63 () (_ BitVec 32))
(declare-fun cond36.i_49_37 () (_ BitVec 32))
(declare-fun reg_49_62 () (_ BitVec 32))
(declare-fun cond24.i_49_33 () (_ BitVec 32))
(declare-fun reg_49_61 () (_ BitVec 32))
(declare-fun cond14.i_49_30 () (_ BitVec 32))
(declare-fun reg_49_60 () (_ BitVec 32))
(declare-fun cond.i_49_24 () (_ BitVec 32))
(declare-fun reg_49_59 () (_ BitVec 64))
(declare-fun cond35.i_49_51 () (_ BitVec 64))
(declare-fun reg_49_58 () (_ BitVec 64))
(declare-fun cond23.i_49_49 () (_ BitVec 64))
(declare-fun reg_49_57 () (_ BitVec 64))
(declare-fun cond14.i7_49_47 () (_ BitVec 64))
(declare-fun reg_49_56 () (_ BitVec 64))
(declare-fun cond.i6_49_42 () (_ BitVec 64))
(declare-fun reg_49_55 () (_ BitVec 64))
(declare-fun reg_49_3 () (_ BitVec 64))
(declare-fun reg_49_54 () (_ BitVec 64))
(declare-fun reg_49_2 () (_ BitVec 64))
(declare-fun reg_49_53 () (_ BitVec 32))
(declare-fun reg_49_1 () (_ BitVec 32))
(declare-fun reg_49_52 () (_ BitVec 32))
(declare-fun reg_49_0 () (_ BitVec 32))
(declare-fun and.i.i.i1_49_35 () (_ BitVec 64))
(declare-fun i27.i8_49_50 () (_ BitVec 64))
(declare-fun reg_49_7 () (_ BitVec 64))
(declare-fun i22.i_49_17 () (_ BitVec 64))
(declare-fun i26.i_49_48 () (_ BitVec 64))
(declare-fun reg_49_6 () (_ BitVec 64))
(declare-fun or8.i_49_46 () (_ BitVec 64))
(declare-fun i25.i_49_43 () (_ BitVec 64))
(declare-fun and7.i_49_45 () (_ BitVec 64))
(declare-fun i24.i_49_18 () (_ BitVec 64))
(declare-fun reg_49_5 () (_ BitVec 64))
(declare-fun or.i5_49_41 () (_ BitVec 64))
(declare-fun i.i1_49_38 () (_ BitVec 64))
(declare-fun and.i4_49_40 () (_ BitVec 64))
(declare-fun reg_49_4 () (_ BitVec 64))
(declare-fun conv29.i_49_36 () (_ BitVec 32))
(declare-fun i30.i_49_34 () (_ BitVec 32))
(declare-fun reg_49_11 () (_ BitVec 32))
(declare-fun conv17.i_49_32 () (_ BitVec 32))
(declare-fun i29.i_49_31 () (_ BitVec 32))
(declare-fun reg_49_10 () (_ BitVec 32))
(declare-fun conv7.i_49_29 () (_ BitVec 32))
(declare-fun i28.i_49_25 () (_ BitVec 32))
(declare-fun or6.i_49_28 () (_ BitVec 64))
(declare-fun and5.i_49_27 () (_ BitVec 64))
(declare-fun reg_49_9 () (_ BitVec 32))
(declare-fun conv.i_49_23 () (_ BitVec 32))
(declare-fun i27.i_49_19 () (_ BitVec 32))
(declare-fun or.i_49_22 () (_ BitVec 64))
(declare-fun and.i_49_21 () (_ BitVec 64))
(declare-fun reg_49_8 () (_ BitVec 32))
(assert (and (= reg_49_0 reg_49_0)
     (= reg_49_1 reg_49_1)
     (= reg_49_2 reg_49_2)
     (= reg_49_3 reg_49_3)
     (= reg_49_4 reg_49_4)
     (= reg_49_5 reg_49_5)
     (= reg_49_6 reg_49_6)
     (= reg_49_7 reg_49_7)
     (= reg_49_8 reg_49_8)
     (= reg_49_9 reg_49_9)
     (= reg_49_10 reg_49_10)
     (= reg_49_11 reg_49_11)
     (= reg_49_12 reg_49_12)
     (= reg_49_13 reg_49_13)
     (= reg_49_14 reg_49_14)
     (= reg_49_15 reg_49_15)
     (= reg_49_16 reg_49_16)
     (= reg_49_2 i22.i_49_17)
     (= reg_49_3 i24.i_49_18)
     (= reg_49_8 i27.i_49_19)
     (= and.i_49_21 (bvand i24.i_49_18 #x0000000080000000))
     (= or.i_49_22 (bvor and.i_49_21 i22.i_49_17))
     (= conv.i_49_23 ((_ extract 31 0) or.i_49_22))
     (= cond.i_49_24
        (ite (bvsge i27.i_49_19 conv.i_49_23) i27.i_49_19 conv.i_49_23))
     (= reg_49_9 i28.i_49_25)
     (= and5.i_49_27 (bvand i24.i_49_18 #x000000007fffffff))
     (= or6.i_49_28 (bvor and5.i_49_27 i22.i_49_17))
     (= conv7.i_49_29 ((_ extract 31 0) or6.i_49_28))
     (= cond14.i_49_30
        (ite (bvsle i28.i_49_25 conv7.i_49_29) i28.i_49_25 conv7.i_49_29))
     (= reg_49_10 i29.i_49_31)
     (= conv17.i_49_32 ((_ extract 31 0) i22.i_49_17))
     (= cond24.i_49_33
        (ite (bvuge i29.i_49_31 conv17.i_49_32) i29.i_49_31 conv17.i_49_32))
     (= reg_49_11 i30.i_49_34)
     (= and.i.i.i1_49_35 (bvor i24.i_49_18 i22.i_49_17))
     (= conv29.i_49_36 ((_ extract 31 0) and.i.i.i1_49_35))
     (= cond36.i_49_37
        (ite (bvule i30.i_49_34 conv29.i_49_36) i30.i_49_34 conv29.i_49_36))
     (= reg_49_4 i.i1_49_38)
     (= and.i4_49_40 (bvand i24.i_49_18 #x8000000000000000))
     (= or.i5_49_41 (bvor and.i4_49_40 i22.i_49_17))
     (= cond.i6_49_42
        (ite (bvsge i.i1_49_38 or.i5_49_41) i.i1_49_38 or.i5_49_41))
     (= reg_49_5 i25.i_49_43)
     (= and7.i_49_45 (bvand i24.i_49_18 #x7fffffffffffffff))
     (= or8.i_49_46 (bvor and7.i_49_45 i22.i_49_17))
     (= cond14.i7_49_47
        (ite (bvsle i25.i_49_43 or8.i_49_46) i25.i_49_43 or8.i_49_46))
     (= reg_49_6 i26.i_49_48)
     (= cond23.i_49_49
        (ite (bvuge i26.i_49_48 i22.i_49_17) i26.i_49_48 i22.i_49_17))
     (= reg_49_7 i27.i8_49_50)
     (= cond35.i_49_51
        (ite (bvule i27.i8_49_50 and.i.i.i1_49_35)
             i27.i8_49_50
             and.i.i.i1_49_35))
     (= reg_49_0 reg_49_52)
     (= reg_49_1 reg_49_53)
     (= reg_49_2 reg_49_54)
     (= reg_49_3 reg_49_55)
     (= cond.i6_49_42 reg_49_56)
     (= cond14.i7_49_47 reg_49_57)
     (= cond23.i_49_49 reg_49_58)
     (= cond35.i_49_51 reg_49_59)
     (= cond.i_49_24 reg_49_60)
     (= cond14.i_49_30 reg_49_61)
     (= cond24.i_49_33 reg_49_62)
     (= cond36.i_49_37 reg_49_63)
     (= reg_49_12 reg_49_64)
     (= reg_49_13 reg_49_65)
     (= reg_49_14 reg_49_66)
     (= reg_49_15 reg_49_67)
     (= reg_49_16 reg_49_68)))

;{"reg":["reg_49_0","reg_49_1",[""],["reg_49_2","reg_49_3"],"reg_49_4","reg_49_5","reg_49_6","reg_49_7","reg_49_8","reg_49_9","reg_49_10","reg_49_11","reg_49_12","reg_49_13","reg_49_14","reg_49_15","reg_49_16"]}
;{"reg":["reg_49_52","reg_49_53",[""],["reg_49_54","reg_49_55"],"reg_49_56","reg_49_57","reg_49_58","reg_49_59","reg_49_60","reg_49_61","reg_49_62","reg_49_63","reg_49_64","reg_49_65","reg_49_66","reg_49_67","reg_49_68"]}
